certificates/rado_a11_c157_N29.cnf
c Rad2 upper bound instance: x1 + 11*x2 - x3 = 157, interval [1,29]
p cnf 29 152
1 9 15 0
-1 -9 -15 0
1 16 20 0
-1 -16 -20 0
2 10 15 0
-2 -10 -15 0
2 16 21 0
-2 -16 -21 0
3 11 15 0
-3 -11 -15 0
3 16 22 0
-3 -16 -22 0
1 4 14 0
-1 -4 -14 0
4 12 15 0
-4 -12 -15 0
4 16 23 0
-4 -16 -23 0
2 5 14 0
-2 -5 -14 0
5 13 15 0
-5 -13 -15 0
5 16 24 0
-5 -16 -24 0
3 6 14 0
-3 -6 -14 0
6 14 15 0
-6 -14 -15 0
6 16 25 0
-6 -16 -25 0
4 7 14 0
-4 -7 -14 0
7 15 0
-7 -15 0
7 16 26 0
-7 -16 -26 0
5 8 14 0
-5 -8 -14 0
8 15 16 0
-8 -15 -16 0
8 16 27 0
-8 -16 -27 0
6 9 14 0
-6 -9 -14 0
9 15 17 0
-9 -15 -17 0
9 16 28 0
-9 -16 -28 0
7 10 14 0
-7 -10 -14 0
10 15 18 0
-10 -15 -18 0
10 16 29 0
-10 -16 -29 0
8 11 14 0
-8 -11 -14 0
11 15 19 0
-11 -15 -19 0
9 12 14 0
-9 -12 -14 0
12 15 20 0
-12 -15 -20 0
10 13 14 0
-10 -13 -14 0
13 15 21 0
-13 -15 -21 0
11 14 0
-11 -14 0
14 15 22 0
-14 -15 -22 0
1 13 15 0
-1 -13 -15 0
12 14 15 0
-12 -14 -15 0
15 23 0
-15 -23 0
2 13 16 0
-2 -13 -16 0
13 14 16 0
-13 -14 -16 0
15 16 24 0
-15 -16 -24 0
3 13 17 0
-3 -13 -17 0
14 17 0
-14 -17 0
15 17 25 0
-15 -17 -25 0
4 13 18 0
-4 -13 -18 0
14 15 18 0
-14 -15 -18 0
15 18 26 0
-15 -18 -26 0
5 13 19 0
-5 -13 -19 0
14 16 19 0
-14 -16 -19 0
15 19 27 0
-15 -19 -27 0
6 13 20 0
-6 -13 -20 0
14 17 20 0
-14 -17 -20 0
15 20 28 0
-15 -20 -28 0
7 13 21 0
-7 -13 -21 0
14 18 21 0
-14 -18 -21 0
15 21 29 0
-15 -21 -29 0
8 13 22 0
-8 -13 -22 0
14 19 22 0
-14 -19 -22 0
9 13 23 0
-9 -13 -23 0
14 20 23 0
-14 -20 -23 0
10 13 24 0
-10 -13 -24 0
14 21 24 0
-14 -21 -24 0
11 13 25 0
-11 -13 -25 0
14 22 25 0
-14 -22 -25 0
1 12 26 0
-1 -12 -26 0
12 13 26 0
-12 -13 -26 0
14 23 26 0
-14 -23 -26 0
2 12 27 0
-2 -12 -27 0
13 27 0
-13 -27 0
14 24 27 0
-14 -24 -27 0
3 12 28 0
-3 -12 -28 0
13 14 28 0
-13 -14 -28 0
14 25 28 0
-14 -25 -28 0
4 12 29 0
-4 -12 -29 0
13 15 29 0
-13 -15 -29 0
14 26 29 0
-14 -26 -29 0
