certificates/rado_a11_c157_N29.drat
14 13 -29 0
13 -28 -29 0
-28 -29 0
d 13 -28 -29 0
-13 -29 0
-29 0
-27 0
13 0
-14 0
11 0
17 0
26 0
24 0
-25 0
-3 0
-12 0
-10 0
28 0
22 0
6 0
9 0
15 0
2 0
4 0
7 0
16 0
-20 0
0
